logs/full/feas/full-06-30-1.sol
# Objective value = 190
x0,1_1 1
x0,1_12 0
x0,1_17 0
x0,1_18 0
x0,1_21 0
x0,1_22 0
x0,1_30 0
x0,1_35 0
x0,1_38 0
x0,1_39 0
x0,1_47 0
x0,1_56 0
x0,1_57 0
x0,1_68 0
x0,1_69 0
x0,2_1 0
x0,2_12 0
x0,2_17 0
x0,2_18 0
x0,2_21 0
x0,2_22 0
x0,2_30 0
x0,2_35 0
x0,2_38 0
x0,2_39 0
x0,2_47 0
x0,2_56 0
x0,2_57 0
x0,2_68 0
x0,2_69 0
x0,3_1 0
x0,3_12 0
x0,3_17 0
x0,3_18 0
x0,3_21 0
x0,3_22 1
x0,3_30 0
x0,3_35 0
x0,3_38 0
x0,3_39 0
x0,3_47 0
x0,3_56 0
x0,3_57 0
x0,3_68 0
x0,3_69 0
x0,4_1 0
x0,4_12 0
x0,4_17 0
x0,4_18 0
x0,4_21 0
x0,4_22 0
x0,4_30 0
x0,4_35 0
x0,4_38 0
x0,4_39 1
x0,4_47 0
x0,4_56 0
x0,4_57 0
x0,4_68 0
x0,4_69 0
x0,5_1 0
x0,5_12 0
x0,5_17 0
x0,5_18 0
x0,5_21 0
x0,5_22 0
x0,5_30 0
x0,5_35 0
x0,5_38 0
x0,5_39 0
x0,5_47 0
x0,5_56 0
x0,5_57 1
x0,5_68 0
x0,5_69 0
x0,6_1 0
x0,6_12 0
x0,6_17 0
x0,6_18 0
x0,6_21 0
x0,6_22 0
x0,6_30 0
x0,6_35 0
x0,6_38 0
x0,6_39 0
x0,6_47 0
x0,6_56 0
x0,6_57 0
x0,6_68 0
x0,6_69 1
x1,2_1 0
x1,2_12 0
x1,2_17 0
x1,2_18 0
x1,2_21 0
x1,2_22 0
x1,2_30 0
x1,2_35 0
x1,2_38 0
x1,2_39 0
x1,2_47 0
x1,2_56 0
x1,2_57 0
x1,2_68 0
x1,2_69 0
x1,3_1 0
x1,3_12 0
x1,3_17 0
x1,3_18 0
x1,3_21 1
x1,3_22 0
x1,3_30 0
x1,3_35 0
x1,3_38 0
x1,3_39 0
x1,3_47 0
x1,3_56 0
x1,3_57 0
x1,3_68 0
x1,3_69 0
x1,4_1 0
x1,4_12 0
x1,4_17 0
x1,4_18 0
x1,4_21 0
x1,4_22 0
x1,4_30 0
x1,4_35 0
x1,4_38 1
x1,4_39 0
x1,4_47 0
x1,4_56 0
x1,4_57 0
x1,4_68 0
x1,4_69 0
x1,5_1 0
x1,5_12 0
x1,5_17 0
x1,5_18 0
x1,5_21 0
x1,5_22 0
x1,5_30 0
x1,5_35 0
x1,5_38 0
x1,5_39 0
x1,5_47 0
x1,5_56 1
x1,5_57 0
x1,5_68 0
x1,5_69 0
x1,6_1 0
x1,6_12 0
x1,6_17 0
x1,6_18 0
x1,6_21 0
x1,6_22 0
x1,6_30 0
x1,6_35 0
x1,6_38 0
x1,6_39 0
x1,6_47 0
x1,6_56 0
x1,6_57 0
x1,6_68 1
x1,6_69 0
x2,3_1 0
x2,3_12 0
x2,3_17 0
x2,3_18 0
x2,3_21 0
x2,3_22 0
x2,3_30 0
x2,3_35 0
x2,3_38 0
x2,3_39 0
x2,3_47 0
x2,3_56 0
x2,3_57 0
x2,3_68 0
x2,3_69 0
x2,4_1 0
x2,4_12 0
x2,4_17 0
x2,4_18 0
x2,4_21 0
x2,4_22 0
x2,4_30 0
x2,4_35 0
x2,4_38 0
x2,4_39 0
x2,4_47 0
x2,4_56 0
x2,4_57 0
x2,4_68 0
x2,4_69 0
x2,5_1 0
x2,5_12 0
x2,5_17 0
x2,5_18 0
x2,5_21 0
x2,5_22 0
x2,5_30 0
x2,5_35 0
x2,5_38 0
x2,5_39 0
x2,5_47 0
x2,5_56 0
x2,5_57 0
x2,5_68 0
x2,5_69 0
x2,6_1 0
x2,6_12 0
x2,6_17 0
x2,6_18 0
x2,6_21 0
x2,6_22 0
x2,6_30 0
x2,6_35 0
x2,6_38 0
x2,6_39 0
x2,6_47 0
x2,6_56 0
x2,6_57 0
x2,6_68 0
x2,6_69 0
x3,4_1 0
x3,4_12 0
x3,4_17 1
x3,4_18 0
x3,4_21 0
x3,4_22 0
x3,4_30 0
x3,4_35 0
x3,4_38 0
x3,4_39 0
x3,4_47 0
x3,4_56 0
x3,4_57 0
x3,4_68 0
x3,4_69 0
x3,5_1 0
x3,5_12 0
x3,5_17 0
x3,5_18 0
x3,5_21 0
x3,5_22 0
x3,5_30 0
x3,5_35 1
x3,5_38 0
x3,5_39 0
x3,5_47 0
x3,5_56 0
x3,5_57 0
x3,5_68 0
x3,5_69 0
x3,6_1 0
x3,6_12 0
x3,6_17 0
x3,6_18 0
x3,6_21 0
x3,6_22 0
x3,6_30 0
x3,6_35 0
x3,6_38 0
x3,6_39 0
x3,6_47 1
x3,6_56 0
x3,6_57 0
x3,6_68 0
x3,6_69 0
x4,5_1 0
x4,5_12 0
x4,5_17 0
x4,5_18 1
x4,5_21 0
x4,5_22 0
x4,5_30 0
x4,5_35 0
x4,5_38 0
x4,5_39 0
x4,5_47 0
x4,5_56 0
x4,5_57 0
x4,5_68 0
x4,5_69 0
x4,6_1 0
x4,6_12 0
x4,6_17 0
x4,6_18 0
x4,6_21 0
x4,6_22 0
x4,6_30 1
x4,6_35 0
x4,6_38 0
x4,6_39 0
x4,6_47 0
x4,6_56 0
x4,6_57 0
x4,6_68 0
x4,6_69 0
x5,6_1 0
x5,6_12 1
x5,6_17 0
x5,6_18 0
x5,6_21 0
x5,6_22 0
x5,6_30 0
x5,6_35 0
x5,6_38 0
x5,6_39 0
x5,6_47 0
x5,6_56 0
x5,6_57 0
x5,6_68 0
x5,6_69 0
p0 0
p1 1
p2 2
p3 22
p4 39
p5 57
p6 69
