logs/full/feas/full-06-30-1.log

Gurobi 8.1.1 (win64) logging started 11/23/19 16:14:29

Changed value of parameter LogFile to logs/full/feas/full-06-30-1.log
   Prev: gurobi.log  Default: 
Changed value of parameter LogToConsole to 0
   Prev: 1  Min: 0  Max: 1  Default: 1
Changed value of parameter TimeLimit to 3600.0
   Prev: 1e+100  Min: 0.0  Max: 1e+100  Default: 1e+100
Optimize a model with 2127 rows, 1002 columns and 8052 nonzeros
Variable types: 0 continuous, 1002 integer (990 binary)
Coefficient statistics:
  Matrix range     [1e+00, 5e+02]
  Objective range  [1e+00, 1e+00]
  Bounds range     [1e+00, 1e+00]
  RHS range        [1e+00, 6e+02]
Presolve time: 0.02s
Presolved: 2127 rows, 1002 columns, 8052 nonzeros
Variable types: 0 continuous, 1002 integer (990 binary)

Root relaxation: objective 6.600000e+01, 186 iterations, 0.00 seconds

    Nodes    |    Current Node    |     Objective Bounds      |     Work
 Expl Unexpl |  Obj  Depth IntInf | Incumbent    BestBd   Gap | It/Node Time

     0     0   66.00000    0  121          -   66.00000      -     -    0s
     0     0   66.00000    0  168          -   66.00000      -     -    0s
     0     0   66.00000    0  106          -   66.00000      -     -    0s
     0     0   66.00000    0  108          -   66.00000      -     -    0s
     0     0   66.00000    0  107          -   66.00000      -     -    0s
     0     2   66.00000    0  107          -   66.00000      -     -    0s
H 8392  3377                     564.0000000   74.15411  86.9%   9.3    4s
  8419  3337  435.00000  568   42  564.00000   74.40544  86.8%   9.3    5s
H10732  4620                     432.0000000   92.00000  78.7%   8.6    7s
 10789  4641  139.21967   32   67  432.00000  105.42461  75.6%   8.8   10s
H12416  5307                     393.0000000  124.00000  68.4%  10.8   12s
H12466  4999                     331.0000000  124.00000  62.5%  10.9   12s
H12484  4321                     226.0000000  124.00000  45.1%  10.9   12s
*13365  4289             261     224.0000000  125.00000  44.2%  10.6   12s
*13672  4160             377     220.0000000  125.00000  43.2%  10.5   12s
*15559  4403             222     208.0000000  125.00000  39.9%   9.7   13s
 21091  5907  204.00000  221  107  208.00000  130.00000  37.5%   8.3   23s
H21103  5619                     200.0000000  130.00000  35.0%   8.3   24s
H21106  5339                     193.0000000  130.00000  32.6%   8.3   24s
 21112  5343  153.00000  199  112  193.00000  130.00000  32.6%   8.3   25s
H21121  5081                     182.0000000  130.00000  28.6%   8.3   25s
H21162  4853                     180.0000000  132.43395  26.4%   8.5   27s
H21167  4614                     176.0000000  132.92006  24.5%   8.5   28s
 21201  4636  165.00000   94   57  176.00000  133.71348  24.0%   8.5   30s

Cutting planes:
  Gomory: 25
  Implied bound: 26
  MIR: 8
  Flow cover: 21
  Zero half: 1

Explored 21294 nodes (200387 simplex iterations) in 31.94 seconds
Thread count was 4 (of 4 available processors)

Solution count 10: 176 180 182 ... 331

Optimal solution found (tolerance 1.00e-04)
Best objective 1.760000000000e+02, best bound 1.760000000000e+02, gap 0.0000%

Gurobi 8.1.1 (win64) logging started 11/23/19 16:15:01

Changed value of parameter LogFile to logs/full/feas/full-06-30-1.log
   Prev: gurobi.log  Default: 
Changed value of parameter LogToConsole to 0
   Prev: 1  Min: 0  Max: 1  Default: 1
Changed value of parameter TimeLimit to 3600.0
   Prev: 1e+100  Min: 0.0  Max: 1e+100  Default: 1e+100
Optimize a model with 1167 rows, 549 columns and 4392 nonzeros
Variable types: 0 continuous, 549 integer (540 binary)
Coefficient statistics:
  Matrix range     [1e+00, 5e+02]
  Objective range  [1e+00, 1e+00]
  Bounds range     [1e+00, 1e+00]
  RHS range        [1e+00, 6e+02]
Presolve time: 0.02s
Presolved: 1167 rows, 549 columns, 4392 nonzeros
Variable types: 0 continuous, 549 integer (540 binary)

Root relaxation: objective 3.600000e+01, 186 iterations, 0.00 seconds

    Nodes    |    Current Node    |     Objective Bounds      |     Work
 Expl Unexpl |  Obj  Depth IntInf | Incumbent    BestBd   Gap | It/Node Time

     0     0   36.00000    0  154          -   36.00000      -     -    0s
H    0     0                     179.0000000   36.00000  79.9%     -    0s
     0     0   40.98885    0  111  179.00000   40.98885  77.1%     -    0s
     0     0   45.93205    0   89  179.00000   45.93205  74.3%     -    0s
     0     0   59.17981    0   66  179.00000   59.17981  66.9%     -    0s
     0     0   60.66714    0   84  179.00000   60.66714  66.1%     -    0s
     0     0   61.34061    0   81  179.00000   61.34061  65.7%     -    0s
     0     0   62.13452    0   74  179.00000   62.13452  65.3%     -    0s
     0     0   62.13452    0   74  179.00000   62.13452  65.3%     -    0s
     0     0   64.00926    0   78  179.00000   64.00926  64.2%     -    0s
H    0     0                     174.0000000   64.00926  63.2%     -    0s
     0     0   64.51975    0  113  174.00000   64.51975  62.9%     -    0s
     0     0   65.04086    0  136  174.00000   65.04086  62.6%     -    0s
     0     0   65.06074    0  137  174.00000   65.06074  62.6%     -    0s
     0     0   65.65060    0  140  174.00000   65.65060  62.3%     -    0s
     0     0   65.65060    0  143  174.00000   65.65060  62.3%     -    0s
     0     0   67.16046    0  102  174.00000   67.16046  61.4%     -    0s
     0     0   67.73385    0  103  174.00000   67.73385  61.1%     -    0s
     0     0   68.34077    0  101  174.00000   68.34077  60.7%     -    0s
     0     0   68.73585    0   99  174.00000   68.73585  60.5%     -    0s
     0     0   68.86096    0   97  174.00000   68.86096  60.4%     -    0s
     0     0   68.88716    0   99  174.00000   68.88716  60.4%     -    0s
     0     0   68.90891    0   98  174.00000   68.90891  60.4%     -    0s
     0     0   68.90891    0   99  174.00000   68.90891  60.4%     -    0s
     0     0   70.95867    0  137  174.00000   70.95867  59.2%     -    0s
     0     0   71.03819    0  136  174.00000   71.03819  59.2%     -    0s
     0     0   71.29448    0  139  174.00000   71.29448  59.0%     -    0s
     0     0   71.29448    0  137  174.00000   71.29448  59.0%     -    0s
     0     0   72.10927    0   79  174.00000   72.10927  58.6%     -    0s
     0     0   72.27913    0   82  174.00000   72.27913  58.5%     -    0s
     0     0   72.39680    0   80  174.00000   72.39680  58.4%     -    0s
     0     0   72.43538    0   80  174.00000   72.43538  58.4%     -    0s
     0     0   72.43778    0   81  174.00000   72.43778  58.4%     -    0s
     0     0   72.66417    0   77  174.00000   72.66417  58.2%     -    0s
     0     0   72.79153    0   80  174.00000   72.79153  58.2%     -    0s
     0     0   72.86363    0   81  174.00000   72.86363  58.1%     -    0s
     0     0   72.86737    0   78  174.00000   72.86737  58.1%     -    0s
     0     0   73.01960    0  110  174.00000   73.01960  58.0%     -    0s
     0     0   73.03365    0  115  174.00000   73.03365  58.0%     -    0s
     0     0   73.03365    0  115  174.00000   73.03365  58.0%     -    0s
     0     0   73.94889    0  111  174.00000   73.94889  57.5%     -    0s
     0     0   76.29487    0  110  174.00000   76.29487  56.2%     -    0s
     0     0   76.40522    0  103  174.00000   76.40522  56.1%     -    0s
     0     0   76.52934    0  104  174.00000   76.52934  56.0%     -    0s
     0     0   77.40510    0   76  174.00000   77.40510  55.5%     -    0s
     0     0   77.41331    0   76  174.00000   77.41331  55.5%     -    0s
     0     0   77.47562    0  114  174.00000   77.47562  55.5%     -    0s
     0     0   77.53148    0  111  174.00000   77.53148  55.4%     -    0s
     0     0   77.53149    0  115  174.00000   77.53149  55.4%     -    0s
     0     0   79.07617    0   72  174.00000   79.07617  54.6%     -    0s
     0     0   79.37141    0  101  174.00000   79.37141  54.4%     -    0s
     0     0   79.55063    0  107  174.00000   79.55063  54.3%     -    0s
     0     0   79.85457    0  109  174.00000   79.85457  54.1%     -    0s
     0     0   79.87689    0  105  174.00000   79.87689  54.1%     -    0s
     0     0   79.87749    0  109  174.00000   79.87749  54.1%     -    0s
     0     0   79.96648    0   98  174.00000   79.96648  54.0%     -    0s
     0     0   79.98578    0  103  174.00000   79.98578  54.0%     -    0s
     0     0   79.98661    0  103  174.00000   79.98661  54.0%     -    0s
     0     0   80.05732    0   95  174.00000   80.05732  54.0%     -    0s
     0     0   80.05732    0   89  174.00000   80.05732  54.0%     -    1s
     0     2   80.05732    0   88  174.00000   80.05732  54.0%     -    1s
H  882   651                     170.0000000  104.38912  38.6%  21.7    3s
  1637   837  138.00000   69   24  170.00000  111.00000  34.7%  26.5    5s
H 1760   804                     165.0000000  113.00000  31.5%  27.2    5s
H 4015  1061                     162.0000000  126.00000  22.2%  24.8    7s

Cutting planes:
  Gomory: 26
  Implied bound: 52
  MIR: 44
  StrongCG: 9
  Flow cover: 80
  Zero half: 1
  Mod-K: 1

Explored 5604 nodes (144761 simplex iterations) in 8.42 seconds
Thread count was 4 (of 4 available processors)

Solution count 5: 162 165 170 ... 179

Optimal solution found (tolerance 1.00e-04)
Best objective 1.620000000000e+02, best bound 1.620000000000e+02, gap 0.0000%

Gurobi 8.1.1 (win64) logging started 11/23/19 16:15:10

Changed value of parameter LogFile to logs/full/feas/full-06-30-1.log
   Prev: gurobi.log  Default: 
Changed value of parameter LogToConsole to 0
   Prev: 1  Min: 0  Max: 1  Default: 1
Changed value of parameter TimeLimit to 3600.0
   Prev: 1e+100  Min: 0.0  Max: 1e+100  Default: 1e+100
Optimize a model with 911 rows, 428 columns and 3416 nonzeros
Variable types: 0 continuous, 428 integer (420 binary)
Coefficient statistics:
  Matrix range     [1e+00, 5e+02]
  Objective range  [1e+00, 1e+00]
  Bounds range     [1e+00, 1e+00]
  RHS range        [1e+00, 6e+02]
Presolve time: 0.01s
Presolved: 911 rows, 428 columns, 3416 nonzeros
Variable types: 0 continuous, 428 integer (420 binary)

Root relaxation: objective 2.800000e+01, 225 iterations, 0.00 seconds

    Nodes    |    Current Node    |     Objective Bounds      |     Work
 Expl Unexpl |  Obj  Depth IntInf | Incumbent    BestBd   Gap | It/Node Time

     0     0   28.00000    0  170          -   28.00000      -     -    0s
     0     0   34.51423    0  135          -   34.51423      -     -    0s
     0     0   41.02221    0  142          -   41.02221      -     -    0s
     0     0   41.02221    0  142          -   41.02221      -     -    0s
     0     0   41.88473    0  120          -   41.88473      -     -    0s
     0     0   41.99224    0  124          -   41.99224      -     -    0s
     0     0   41.99224    0  124          -   41.99224      -     -    0s
     0     0   42.04771    0  102          -   42.04771      -     -    0s
     0     0   42.04771    0  106          -   42.04771      -     -    0s
     0     0   42.30276    0  110          -   42.30276      -     -    0s
     0     0   42.36539    0  123          -   42.36539      -     -    0s
     0     0   42.44415    0  128          -   42.44415      -     -    0s
     0     0   42.69962    0  128          -   42.69962      -     -    0s
     0     0   42.69962    0  127          -   42.69962      -     -    0s
     0     0   42.98800    0  125          -   42.98800      -     -    0s
     0     0   42.98800    0  122          -   42.98800      -     -    0s
     0     0   42.98949    0  126          -   42.98949      -     -    0s
     0     0   42.98949    0  112          -   42.98949      -     -    0s
H    0     0                     197.0000000   42.98949  78.2%     -    0s
     0     2   42.98949    0   98  197.00000   42.98949  78.2%     -    0s
H 1276   725                     183.0000000   92.00000  49.7%  21.4    1s
H 2331   763                     160.0000000   93.00000  41.9%  17.0    2s

Cutting planes:
  Gomory: 25
  MIR: 31
  StrongCG: 9

Explored 3650 nodes (84807 simplex iterations) in 3.58 seconds
Thread count was 4 (of 4 available processors)

Solution count 3: 160 183 197 

Optimal solution found (tolerance 1.00e-04)
Best objective 1.600000000000e+02, best bound 1.600000000000e+02, gap 0.0000%

Gurobi 8.1.1 (win64) logging started 11/23/19 16:15:13

Changed value of parameter LogFile to logs/full/feas/full-06-30-1.log
   Prev: gurobi.log  Default: 
Changed value of parameter LogToConsole to 0
   Prev: 1  Min: 0  Max: 1  Default: 1
Changed value of parameter TimeLimit to 3600.0
   Prev: 1e+100  Min: 0.0  Max: 1e+100  Default: 1e+100
Optimize a model with 687 rows, 322 columns and 2562 nonzeros
Variable types: 0 continuous, 322 integer (315 binary)
Coefficient statistics:
  Matrix range     [1e+00, 5e+02]
  Objective range  [1e+00, 1e+00]
  Bounds range     [1e+00, 1e+00]
  RHS range        [1e+00, 6e+02]
Presolve time: 0.01s
Presolved: 687 rows, 322 columns, 2562 nonzeros
Variable types: 0 continuous, 322 integer (315 binary)

Root relaxation: objective 2.316667e+01, 269 iterations, 0.00 seconds

    Nodes    |    Current Node    |     Objective Bounds      |     Work
 Expl Unexpl |  Obj  Depth IntInf | Incumbent    BestBd   Gap | It/Node Time

     0     0   23.16667    0  176          -   23.16667      -     -    0s
     0     0   33.08835    0  128          -   33.08835      -     -    0s
     0     0   33.23188    0  127          -   33.23188      -     -    0s
     0     0   37.80257    0  164          -   37.80257      -     -    0s
     0     0   39.06930    0  121          -   39.06930      -     -    0s
     0     0   39.18209    0  124          -   39.18209      -     -    0s
     0     0   39.18209    0  126          -   39.18209      -     -    0s
     0     0   39.42229    0  104          -   39.42229      -     -    0s
     0     0   40.04304    0  132          -   40.04304      -     -    0s
     0     0   40.16822    0  179          -   40.16822      -     -    0s
     0     0   40.17519    0  182          -   40.17519      -     -    0s
     0     0   40.44201    0  184          -   40.44201      -     -    0s
     0     0   40.79276    0  186          -   40.79276      -     -    0s
     0     0   40.88208    0  181          -   40.88208      -     -    0s
     0     0   40.94527    0  195          -   40.94527      -     -    0s
     0     0   41.03204    0  184          -   41.03204      -     -    0s
     0     0   41.07950    0  180          -   41.07950      -     -    0s
     0     0   41.11376    0  181          -   41.11376      -     -    0s
     0     0   41.11645    0  180          -   41.11645      -     -    0s
     0     0   41.50300    0  163          -   41.50300      -     -    0s
     0     0   41.59971    0  160          -   41.59971      -     -    0s
     0     0   41.63618    0  161          -   41.63618      -     -    0s
     0     0   41.67078    0  159          -   41.67078      -     -    0s
     0     0   41.67114    0  161          -   41.67114      -     -    0s
     0     0   42.72631    0  151          -   42.72631      -     -    0s
     0     0   42.81283    0  150          -   42.81283      -     -    0s
     0     0   42.88597    0  156          -   42.88597      -     -    0s
     0     0   42.89407    0  157          -   42.89407      -     -    0s
     0     0   43.52418    0  156          -   43.52418      -     -    0s
     0     0   44.70039    0  158          -   44.70039      -     -    0s
     0     0   45.36661    0  162          -   45.36661      -     -    0s
     0     0   45.42252    0  153          -   45.42252      -     -    0s
     0     0   45.42478    0  156          -   45.42478      -     -    0s
     0     0   45.50742    0  152          -   45.50742      -     -    0s
     0     0   45.58039    0  155          -   45.58039      -     -    0s
     0     0   45.62410    0  161          -   45.62410      -     -    0s
     0     0   45.70200    0  167          -   45.70200      -     -    0s
     0     0   45.74387    0  171          -   45.74387      -     -    0s
     0     0   45.77320    0  172          -   45.77320      -     -    0s
     0     0   45.79688    0  175          -   45.79688      -     -    0s
     0     0   46.14087    0  201          -   46.14087      -     -    0s
     0     0   46.43958    0  173          -   46.43958      -     -    0s
     0     0   46.50716    0  179          -   46.50716      -     -    0s
     0     0   46.54011    0  147          -   46.54011      -     -    0s
     0     0   46.57979    0  206          -   46.57979      -     -    0s
     0     0   46.62814    0  144          -   46.62814      -     -    0s
     0     0   46.65056    0  149          -   46.65056      -     -    0s
     0     0   47.48976    0  190          -   47.48976      -     -    0s
     0     0   47.73244    0  188          -   47.73244      -     -    0s
     0     0   47.79705    0  189          -   47.79705      -     -    0s
     0     0   47.81123    0  190          -   47.81123      -     -    0s
     0     0   48.21756    0  185          -   48.21756      -     -    0s
     0     0   48.34113    0  157          -   48.34113      -     -    0s
     0     0   48.41498    0  160          -   48.41498      -     -    0s
     0     0   48.42425    0  165          -   48.42425      -     -    0s
     0     0   48.78307    0  163          -   48.78307      -     -    0s
     0     0   49.05205    0  150          -   49.05205      -     -    0s
     0     0   49.08238    0  161          -   49.08238      -     -    0s
     0     0   49.13610    0  153          -   49.13610      -     -    0s
     0     0   49.14950    0  156          -   49.14950      -     -    0s
     0     0   49.44593    0  158          -   49.44593      -     -    0s
     0     0   49.53625    0  135          -   49.53625      -     -    0s
     0     0   49.55993    0  146          -   49.55993      -     -    0s
     0     0   49.68914    0  207          -   49.68914      -     -    0s
     0     0   49.68914    0  207          -   49.68914      -     -    0s
H    0     0                     236.0000000   49.68914  78.9%     -    0s
     0     2   49.68914    0  205  236.00000   49.68914  78.9%     -    0s
H  138    76                     231.0000000   62.63344  72.9%  39.2    0s
H  303   181                     228.0000000   63.91051  72.0%  28.9    0s
  1566   626  174.38835   92   48  228.00000   93.27485  59.1%  38.2    5s
H 4639  2097                     207.0000000  116.00000  44.0%  27.2    6s
H 4693  1941                     190.0000000  116.00000  38.9%  27.2    7s
  6999  1931 infeasible   55       190.00000  128.37313  32.4%  30.2   10s

Cutting planes:
  Gomory: 15
  Implied bound: 20
  MIR: 84
  Flow cover: 165

Explored 10204 nodes (322949 simplex iterations) in 13.39 seconds
Thread count was 4 (of 4 available processors)

Solution count 5: 190 207 228 ... 236

Optimal solution found (tolerance 1.00e-04)
Best objective 1.900000000000e+02, best bound 1.900000000000e+02, gap 0.0000%
